*Heading
** Job name: Demo_Bracket  Model name: Demo
** A small demonstration model shipped with the INP editor.
*Preprint, echo=NO, model=NO, history=NO, contact=NO
**
** PARTS
**
*Part, name=Bracket
*Node
      1,       0.0000,       0.0000,       0.0000
      2,      10.0000,       0.0000,       0.0000
      3,      20.0000,       0.0000,       0.0000
      4,      30.0000,       0.0000,       0.0000
      5,      40.0000,       0.0000,       0.0000
      6,      50.0000,       0.0000,       0.0000
      7,      60.0000,       0.0000,       0.0000
      8,      70.0000,       0.0000,       0.0000
      9,      80.0000,       0.0000,       0.0000
     10,       0.0000,       5.0000,       0.0000
     11,      10.0000,       5.0000,       0.0000
     12,      20.0000,       5.0000,       0.0000
     13,      30.0000,       5.0000,       0.0000
     14,      40.0000,       5.0000,       0.0000
     15,      50.0000,       5.0000,       0.0000
     16,      60.0000,       5.0000,       0.0000
     17,      70.0000,       5.0000,       0.0000
     18,      80.0000,       5.0000,       0.0000
     19,       0.0000,      10.0000,       0.0000
     20,      10.0000,      10.0000,       0.0000
     21,      20.0000,      10.0000,       0.0000
     22,      30.0000,      10.0000,       0.0000
     23,      40.0000,      10.0000,       0.0000
     24,      50.0000,      10.0000,       0.0000
     25,      60.0000,      10.0000,       0.0000
     26,      70.0000,      10.0000,       0.0000
     27,      80.0000,      10.0000,       0.0000
     28,       0.0000,      15.0000,       0.0000
     29,      10.0000,      15.0000,       0.0000
     30,      20.0000,      15.0000,       0.0000
     31,      30.0000,      15.0000,       0.0000
     32,      40.0000,      15.0000,       0.0000
     33,      50.0000,      15.0000,       0.0000
     34,      60.0000,      15.0000,       0.0000
     35,      70.0000,      15.0000,       0.0000
     36,      80.0000,      15.0000,       0.0000
     37,       0.0000,      20.0000,       0.0000
     38,      10.0000,      20.0000,       0.0000
     39,      20.0000,      20.0000,       0.0000
     40,      30.0000,      20.0000,       0.0000
     41,      40.0000,      20.0000,       0.0000
     42,      50.0000,      20.0000,       0.0000
     43,      60.0000,      20.0000,       0.0000
     44,      70.0000,      20.0000,       0.0000
     45,      80.0000,      20.0000,       0.0000
     46,       0.0000,       0.0000,       5.0000
     47,      10.0000,       0.0000,       5.0000
     48,      20.0000,       0.0000,       5.0000
     49,      30.0000,       0.0000,       5.0000
     50,      40.0000,       0.0000,       5.0000
     51,      50.0000,       0.0000,       5.0000
     52,      60.0000,       0.0000,       5.0000
     53,      70.0000,       0.0000,       5.0000
     54,      80.0000,       0.0000,       5.0000
     55,       0.0000,       5.0000,       5.0000
     56,      10.0000,       5.0000,       5.0000
     57,      20.0000,       5.0000,       5.0000
     58,      30.0000,       5.0000,       5.0000
     59,      40.0000,       5.0000,       5.0000
     60,      50.0000,       5.0000,       5.0000
     61,      60.0000,       5.0000,       5.0000
     62,      70.0000,       5.0000,       5.0000
     63,      80.0000,       5.0000,       5.0000
     64,       0.0000,      10.0000,       5.0000
     65,      10.0000,      10.0000,       5.0000
     66,      20.0000,      10.0000,       5.0000
     67,      30.0000,      10.0000,       5.0000
     68,      40.0000,      10.0000,       5.0000
     69,      50.0000,      10.0000,       5.0000
     70,      60.0000,      10.0000,       5.0000
     71,      70.0000,      10.0000,       5.0000
     72,      80.0000,      10.0000,       5.0000
     73,       0.0000,      15.0000,       5.0000
     74,      10.0000,      15.0000,       5.0000
     75,      20.0000,      15.0000,       5.0000
     76,      30.0000,      15.0000,       5.0000
     77,      40.0000,      15.0000,       5.0000
     78,      50.0000,      15.0000,       5.0000
     79,      60.0000,      15.0000,       5.0000
     80,      70.0000,      15.0000,       5.0000
     81,      80.0000,      15.0000,       5.0000
     82,       0.0000,      20.0000,       5.0000
     83,      10.0000,      20.0000,       5.0000
     84,      20.0000,      20.0000,       5.0000
     85,      30.0000,      20.0000,       5.0000
     86,      40.0000,      20.0000,       5.0000
     87,      50.0000,      20.0000,       5.0000
     88,      60.0000,      20.0000,       5.0000
     89,      70.0000,      20.0000,       5.0000
     90,      80.0000,      20.0000,       5.0000
     91,       0.0000,       0.0000,      10.0000
     92,      10.0000,       0.0000,      10.0000
     93,      20.0000,       0.0000,      10.0000
     94,      30.0000,       0.0000,      10.0000
     95,      40.0000,       0.0000,      10.0000
     96,      50.0000,       0.0000,      10.0000
     97,      60.0000,       0.0000,      10.0000
     98,      70.0000,       0.0000,      10.0000
     99,      80.0000,       0.0000,      10.0000
    100,       0.0000,       5.0000,      10.0000
    101,      10.0000,       5.0000,      10.0000
    102,      20.0000,       5.0000,      10.0000
    103,      30.0000,       5.0000,      10.0000
    104,      40.0000,       5.0000,      10.0000
    105,      50.0000,       5.0000,      10.0000
    106,      60.0000,       5.0000,      10.0000
    107,      70.0000,       5.0000,      10.0000
    108,      80.0000,       5.0000,      10.0000
    109,       0.0000,      10.0000,      10.0000
    110,      10.0000,      10.0000,      10.0000
    111,      20.0000,      10.0000,      10.0000
    112,      30.0000,      10.0000,      10.0000
    113,      40.0000,      10.0000,      10.0000
    114,      50.0000,      10.0000,      10.0000
    115,      60.0000,      10.0000,      10.0000
    116,      70.0000,      10.0000,      10.0000
    117,      80.0000,      10.0000,      10.0000
    118,       0.0000,      15.0000,      10.0000
    119,      10.0000,      15.0000,      10.0000
    120,      20.0000,      15.0000,      10.0000
    121,      30.0000,      15.0000,      10.0000
    122,      40.0000,      15.0000,      10.0000
    123,      50.0000,      15.0000,      10.0000
    124,      60.0000,      15.0000,      10.0000
    125,      70.0000,      15.0000,      10.0000
    126,      80.0000,      15.0000,      10.0000
    127,       0.0000,      20.0000,      10.0000
    128,      10.0000,      20.0000,      10.0000
    129,      20.0000,      20.0000,      10.0000
    130,      30.0000,      20.0000,      10.0000
    131,      40.0000,      20.0000,      10.0000
    132,      50.0000,      20.0000,      10.0000
    133,      60.0000,      20.0000,      10.0000
    134,      70.0000,      20.0000,      10.0000
    135,      80.0000,      20.0000,      10.0000
    136,       0.0000,       0.0000,      15.0000
    137,      10.0000,       0.0000,      15.0000
    138,      20.0000,       0.0000,      15.0000
    139,      30.0000,       0.0000,      15.0000
    140,      40.0000,       0.0000,      15.0000
    141,      50.0000,       0.0000,      15.0000
    142,      60.0000,       0.0000,      15.0000
    143,      70.0000,       0.0000,      15.0000
    144,      80.0000,       0.0000,      15.0000
    145,       0.0000,       5.0000,      15.0000
    146,      10.0000,       5.0000,      15.0000
    147,      20.0000,       5.0000,      15.0000
    148,      30.0000,       5.0000,      15.0000
    149,      40.0000,       5.0000,      15.0000
    150,      50.0000,       5.0000,      15.0000
    151,      60.0000,       5.0000,      15.0000
    152,      70.0000,       5.0000,      15.0000
    153,      80.0000,       5.0000,      15.0000
    154,       0.0000,      10.0000,      15.0000
    155,      10.0000,      10.0000,      15.0000
    156,      20.0000,      10.0000,      15.0000
    157,      30.0000,      10.0000,      15.0000
    158,      40.0000,      10.0000,      15.0000
    159,      50.0000,      10.0000,      15.0000
    160,      60.0000,      10.0000,      15.0000
    161,      70.0000,      10.0000,      15.0000
    162,      80.0000,      10.0000,      15.0000
    163,       0.0000,      15.0000,      15.0000
    164,      10.0000,      15.0000,      15.0000
    165,      20.0000,      15.0000,      15.0000
    166,      30.0000,      15.0000,      15.0000
    167,      40.0000,      15.0000,      15.0000
    168,      50.0000,      15.0000,      15.0000
    169,      60.0000,      15.0000,      15.0000
    170,      70.0000,      15.0000,      15.0000
    171,      80.0000,      15.0000,      15.0000
    172,       0.0000,      20.0000,      15.0000
    173,      10.0000,      20.0000,      15.0000
    174,      20.0000,      20.0000,      15.0000
    175,      30.0000,      20.0000,      15.0000
    176,      40.0000,      20.0000,      15.0000
    177,      50.0000,      20.0000,      15.0000
    178,      60.0000,      20.0000,      15.0000
    179,      70.0000,      20.0000,      15.0000
    180,      80.0000,      20.0000,      15.0000
*Element, type=C3D8R
     1,      1,      2,     11,     10,     46,     47,     56,     55
     2,      2,      3,     12,     11,     47,     48,     57,     56
     3,      3,      4,     13,     12,     48,     49,     58,     57
     4,      4,      5,     14,     13,     49,     50,     59,     58
     5,      5,      6,     15,     14,     50,     51,     60,     59
     6,      6,      7,     16,     15,     51,     52,     61,     60
     7,      7,      8,     17,     16,     52,     53,     62,     61
     8,      8,      9,     18,     17,     53,     54,     63,     62
     9,     10,     11,     20,     19,     55,     56,     65,     64
    10,     11,     12,     21,     20,     56,     57,     66,     65
    11,     12,     13,     22,     21,     57,     58,     67,     66
    12,     13,     14,     23,     22,     58,     59,     68,     67
    13,     14,     15,     24,     23,     59,     60,     69,     68
    14,     15,     16,     25,     24,     60,     61,     70,     69
    15,     16,     17,     26,     25,     61,     62,     71,     70
    16,     17,     18,     27,     26,     62,     63,     72,     71
    17,     19,     20,     29,     28,     64,     65,     74,     73
    18,     20,     21,     30,     29,     65,     66,     75,     74
    19,     21,     22,     31,     30,     66,     67,     76,     75
    20,     22,     23,     32,     31,     67,     68,     77,     76
    21,     23,     24,     33,     32,     68,     69,     78,     77
    22,     24,     25,     34,     33,     69,     70,     79,     78
    23,     25,     26,     35,     34,     70,     71,     80,     79
    24,     26,     27,     36,     35,     71,     72,     81,     80
    25,     28,     29,     38,     37,     73,     74,     83,     82
    26,     29,     30,     39,     38,     74,     75,     84,     83
    27,     30,     31,     40,     39,     75,     76,     85,     84
    28,     31,     32,     41,     40,     76,     77,     86,     85
    29,     32,     33,     42,     41,     77,     78,     87,     86
    30,     33,     34,     43,     42,     78,     79,     88,     87
    31,     34,     35,     44,     43,     79,     80,     89,     88
    32,     35,     36,     45,     44,     80,     81,     90,     89
    33,     46,     47,     56,     55,     91,     92,    101,    100
    34,     47,     48,     57,     56,     92,     93,    102,    101
    35,     48,     49,     58,     57,     93,     94,    103,    102
    36,     49,     50,     59,     58,     94,     95,    104,    103
    37,     50,     51,     60,     59,     95,     96,    105,    104
    38,     51,     52,     61,     60,     96,     97,    106,    105
    39,     52,     53,     62,     61,     97,     98,    107,    106
    40,     53,     54,     63,     62,     98,     99,    108,    107
    41,     55,     56,     65,     64,    100,    101,    110,    109
    42,     56,     57,     66,     65,    101,    102,    111,    110
    43,     57,     58,     67,     66,    102,    103,    112,    111
    44,     58,     59,     68,     67,    103,    104,    113,    112
    45,     59,     60,     69,     68,    104,    105,    114,    113
    46,     60,     61,     70,     69,    105,    106,    115,    114
    47,     61,     62,     71,     70,    106,    107,    116,    115
    48,     62,     63,     72,     71,    107,    108,    117,    116
    49,     64,     65,     74,     73,    109,    110,    119,    118
    50,     65,     66,     75,     74,    110,    111,    120,    119
    51,     66,     67,     76,     75,    111,    112,    121,    120
    52,     67,     68,     77,     76,    112,    113,    122,    121
    53,     68,     69,     78,     77,    113,    114,    123,    122
    54,     69,     70,     79,     78,    114,    115,    124,    123
    55,     70,     71,     80,     79,    115,    116,    125,    124
    56,     71,     72,     81,     80,    116,    117,    126,    125
    57,     73,     74,     83,     82,    118,    119,    128,    127
    58,     74,     75,     84,     83,    119,    120,    129,    128
    59,     75,     76,     85,     84,    120,    121,    130,    129
    60,     76,     77,     86,     85,    121,    122,    131,    130
    61,     77,     78,     87,     86,    122,    123,    132,    131
    62,     78,     79,     88,     87,    123,    124,    133,    132
    63,     79,     80,     89,     88,    124,    125,    134,    133
    64,     80,     81,     90,     89,    125,    126,    135,    134
    65,     91,     92,    101,    100,    136,    137,    146,    145
    66,     92,     93,    102,    101,    137,    138,    147,    146
    67,     93,     94,    103,    102,    138,    139,    148,    147
    68,     94,     95,    104,    103,    139,    140,    149,    148
    69,     95,     96,    105,    104,    140,    141,    150,    149
    70,     96,     97,    106,    105,    141,    142,    151,    150
    71,     97,     98,    107,    106,    142,    143,    152,    151
    72,     98,     99,    108,    107,    143,    144,    153,    152
    73,    100,    101,    110,    109,    145,    146,    155,    154
    74,    101,    102,    111,    110,    146,    147,    156,    155
    75,    102,    103,    112,    111,    147,    148,    157,    156
    76,    103,    104,    113,    112,    148,    149,    158,    157
    77,    104,    105,    114,    113,    149,    150,    159,    158
    78,    105,    106,    115,    114,    150,    151,    160,    159
    79,    106,    107,    116,    115,    151,    152,    161,    160
    80,    107,    108,    117,    116,    152,    153,    162,    161
    81,    109,    110,    119,    118,    154,    155,    164,    163
    82,    110,    111,    120,    119,    155,    156,    165,    164
    83,    111,    112,    121,    120,    156,    157,    166,    165
    84,    112,    113,    122,    121,    157,    158,    167,    166
    85,    113,    114,    123,    122,    158,    159,    168,    167
    86,    114,    115,    124,    123,    159,    160,    169,    168
    87,    115,    116,    125,    124,    160,    161,    170,    169
    88,    116,    117,    126,    125,    161,    162,    171,    170
    89,    118,    119,    128,    127,    163,    164,    173,    172
    90,    119,    120,    129,    128,    164,    165,    174,    173
    91,    120,    121,    130,    129,    165,    166,    175,    174
    92,    121,    122,    131,    130,    166,    167,    176,    175
    93,    122,    123,    132,    131,    167,    168,    177,    176
    94,    123,    124,    133,    132,    168,    169,    178,    177
    95,    124,    125,    134,    133,    169,    170,    179,    178
    96,    125,    126,    135,    134,    170,    171,    180,    179
*Nset, nset=Set-All, generate
      1,     180,       1
*Elset, elset=Set-All, generate
      1,      96,       1
*Nset, nset=Fixed_End
     1,     10,     19,     28,     37,     46,     55,     64,     73,     82,     91,    100,    109,    118,    127,    136,
   145,    154,    163,    172
*Nset, nset=Loaded_End
     9,     18,     27,     36,     45,     54,     63,     72,     81,     90,     99,    108,    117,    126,    135,    144,
   153,    162,    171,    180
*Elset, elset=Top_Elements
    65,     66,     67,     68,     69,     70,     71,     72,     73,     74,     75,     76,     77,     78,     79,     80,
    81,     82,     83,     84,     85,     86,     87,     88,     89,     90,     91,     92,     93,     94,     95,     96
*Surface, type=ELEMENT, name=Top_Surface
Top_Elements, S6
** Section: Steel_Section
*Solid Section, elset=Set-All, material=Steel
,
*End Part
**  
*Part, name=Cover_Plate
*Node
      1,       0.0000,       0.0000,       0.0000
      2,      20.0000,       0.0000,       0.0000
      3,      40.0000,       0.0000,       0.0000
      4,      60.0000,       0.0000,       0.0000
      5,      80.0000,       0.0000,       0.0000
      6,       0.0000,      10.0000,       0.0000
      7,      20.0000,      10.0000,       0.0000
      8,      40.0000,      10.0000,       0.0000
      9,      60.0000,      10.0000,       0.0000
     10,      80.0000,      10.0000,       0.0000
     11,       0.0000,      20.0000,       0.0000
     12,      20.0000,      20.0000,       0.0000
     13,      40.0000,      20.0000,       0.0000
     14,      60.0000,      20.0000,       0.0000
     15,      80.0000,      20.0000,       0.0000
*Element, type=S4R
     1,      1,      2,      7,      6
     2,      2,      3,      8,      7
     3,      3,      4,      9,      8
     4,      4,      5,     10,      9
     5,      6,      7,     12,     11
     6,      7,      8,     13,     12
     7,      8,      9,     14,     13
     8,      9,     10,     15,     14
*Nset, nset=Plate_All, generate
      1,      15,       1
*Elset, elset=Plate_All, generate
      1,       8,       1
** Section: Plate_Section
*Shell Section, elset=Plate_All, material=Aluminium
2., 5
*End Part
**
** ASSEMBLY
**
*Assembly, name=Assembly
**  
*Instance, name=Bracket-1, part=Bracket
*End Instance
**  
*Instance, name=Cover_Plate-1, part=Cover_Plate
          0.,          26.,           0.
          0.,          26.,           0.,          1.,          26.,           0.,         -12.
*End Instance
**  
*Nset, nset=Fixed_End, instance=Bracket-1
     1,     10,     19,     28,     37,     46,     55,     64,     73,     82,     91,    100,    109,    118,    127,    136,
   145,    154,    163,    172
*Nset, nset=Loaded_End, instance=Bracket-1
     9,     18,     27,     36,     45,     54,     63,     72,     81,     90,     99,    108,    117,    126,    135,    144,
   153,    162,    171,    180
*Elset, elset=Top_Elements, instance=Bracket-1
    65,     66,     67,     68,     69,     70,     71,     72,     73,     74,     75,     76,     77,     78,     79,     80,
    81,     82,     83,     84,     85,     86,     87,     88,     89,     90,     91,     92,     93,     94,     95,     96
*Surface, type=ELEMENT, name=Bracket_Top
Top_Elements, S6
*End Assembly
** 
** MATERIALS
** 
*Material, name=Steel
*Density
7.85e-09,
*Elastic
210000., 0.3
*Plastic
 250., 0.
 420., 0.15
*Material, name=Aluminium
*Density
2.7e-09,
*Elastic
 70000., 0.33
** 
** BOUNDARY CONDITIONS
** 
** Name: BC_Encastre Type: Symmetry/Antisymmetry/Encastre
*Boundary
Fixed_End, ENCASTRE
** ----------------------------------------------------------------
** 
** STEP: Load_Step
** 
*Step, name=Load_Step, nlgeom=YES, inc=100
*Static
0.1, 1., 1e-05, 1.
** 
** LOADS
** 
** Name: Tip_Load   Type: Concentrated force
*Cload
Loaded_End, 2, -25.
** 
** OUTPUT REQUESTS
** 
*Restart, write, frequency=0
** 
** FIELD OUTPUT: F-Output-1
** 
*Output, field, variable=PRESELECT
** 
** HISTORY OUTPUT: H-Output-1
** 
*Output, history, variable=PRESELECT
*End Step
